p tw 20 53
0 1
0 3
0 6
1 6
1 16
1 19
1 7
1 17
2 3
2 4
2 7
2 6
2 12
3 9
3 12
3 4
3 14
3 17
4 5
4 13
4 16
4 7
4 6
5 14
5 9
5 10
5 12
5 7
6 7
6 11
6 10
6 17
7 8
7 14
7 10
7 15
8 11
9 12
9 10
9 13
10 11
10 15
10 14
10 16
11 19
12 17
12 16
13 17
14 15
14 17
15 18
15 19
15 17
